solution status: optimal solution found
objective value:                                    0
$_73_y                                             22 	(obj:0)
$_73_z                                             22 	(obj:0)
$_24_y                                             20 	(obj:0)
$_24_z                                             19 	(obj:0)
$_77_y                                             21 	(obj:0)
$_77_z                                             22 	(obj:0)
$_78_y                                             23 	(obj:0)
$_78_z                                             20 	(obj:0)
$_114_y                                            23 	(obj:0)
$_114_z                                            21 	(obj:0)
$_76_y                                             21 	(obj:0)
$_76_z                                             23 	(obj:0)
$_46_y                                             20 	(obj:0)
$_46_z                                             20 	(obj:0)
$_74_y                                             23 	(obj:0)
$_74_z                                             22 	(obj:0)
$_75_y                                             22 	(obj:0)
$_75_z                                             23 	(obj:0)
$_91_y                                             21 	(obj:0)
$_91_z                                             21 	(obj:0)
